1207.42 0
0 115 114 106 107 108 109 120 0
0 46 118 17 18 19 65 130 119 117 131 116 132 0
0 73 77 64 133 68 70 69 112 125 111 110 122 123 124 126 127 121 128 129 113 81 0
0 60 59 31 58 93 94 45 39 44 43 40 3 41 42 2 4 5 6 7 8 9 10 12 11 14 88 15 13 16 92 90 89 87 86 84 85 83 20 82 0
0 78 63 79 67 80 33 71 66 74 76 134 32 0
0 72 47 75 1 61 62 54 55 53 103 56 57 105 29 30 28 27 26 25 21 91 22 24 23 0
0 48 34 49 50 51 52 102 104 101 100 98 97 96 38 95 37 99 36 35 0